p cnf 732 1989
a 1 2 3 4 5 6 7 8 17 18 19 20 21 22 23 24 25 26 27 28 29 30 31 32 33 34 35 36 37 38 39 40 41 42 43 44 45 46 47 48 49 50 51 52 53 54 55 56 57 58 59 60 61 62 63 64 65 66 67 68 69 70 71 72 73 74 75 76 77 78 79 80 81 82 0
e 9 10 11 12 13 14 15 16 83 84 85 86 87 88 89 90 91 92 93 94 95 96 97 98 99 100 101 102 103 104 105 106 107 108 109 110 111 112 113 114 115 116 117 118 119 120 121 122 123 124 125 126 127 128 129 130 131 132 133 134 135 136 137 138 139 140 141 142 143 144 145 146 147 148 149 150 151 152 153 154 155 156 157 158 159 160 161 162 163 164 165 166 167 168 169 170 171 172 173 174 175 176 177 178 179 180 181 182 183 184 185 186 187 188 189 190 191 192 193 194 195 196 197 198 199 200 201 202 203 204 205 206 207 208 209 210 211 212 213 214 215 216 217 218 219 220 221 222 223 224 225 226 227 228 229 230 231 232 233 234 235 236 237 238 239 240 241 242 243 244 245 246 247 248 249 250 251 252 253 254 255 256 257 258 259 260 261 262 263 264 265 266 267 268 269 270 271 272 273 274 275 276 277 278 279 280 281 282 283 284 285 286 287 288 289 290 291 292 293 294 295 296 297 298 299 300 301 302 303 304 305 306 307 308 309 310 311 312 313 314 315 316 317 318 319 320 321 322 323 324 325 326 327 328 329 330 331 332 333 334 335 336 337 338 339 340 341 342 343 344 345 346 347 348 349 350 351 352 353 354 355 356 357 358 359 360 361 362 363 364 365 366 367 368 369 370 371 372 373 374 375 376 377 378 379 380 381 382 383 384 385 386 387 388 389 390 391 392 393 394 395 396 397 398 399 400 401 402 403 404 405 406 407 408 409 410 411 412 413 414 415 416 417 418 419 420 421 422 423 424 425 426 427 428 429 430 431 432 433 434 435 436 437 438 439 440 441 442 443 444 445 446 447 448 449 450 451 452 453 454 455 456 457 458 459 460 461 462 463 464 465 466 467 468 469 470 471 472 473 474 475 476 477 478 479 480 481 482 483 484 485 486 487 488 489 490 491 492 493 494 495 496 497 498 499 500 501 502 503 504 505 506 507 508 509 510 511 512 513 514 515 516 517 518 519 520 521 522 523 524 525 526 527 528 529 530 531 532 533 534 535 536 537 538 539 540 541 542 543 544 545 546 547 548 549 550 551 552 553 554 555 556 557 558 559 560 561 562 563 564 565 566 567 568 569 570 571 572 573 574 575 576 577 578 579 580 581 582 583 584 585 586 587 588 589 590 591 592 593 594 595 596 597 598 599 600 601 602 603 604 605 606 607 608 609 610 611 612 613 614 615 616 617 618 619 620 621 622 623 624 625 626 627 628 629 630 631 632 633 634 635 636 637 638 639 640 641 642 643 644 645 646 647 648 649 650 651 652 653 654 655 656 657 658 659 660 661 662 663 664 665 666 667 668 669 670 671 672 673 674 675 676 677 678 679 680 681 682 683 684 685 686 687 688 689 690 691 692 693 694 695 696 697 698 699 700 701 702 703 704 705 706 707 708 709 710 711 712 713 714 715 716 717 718 719 720 721 722 723 724 725 726 727 728 729 730 731 732 0
-732 0
732 -488 0
732 -513 0
732 -562 0
732 -573 0
732 -602 0
732 -627 0
732 -636 0
732 -645 0
732 -654 0
732 -663 0
732 -672 0
732 -689 0
732 -698 0
732 -713 0
732 -722 0
732 -731 0
5 6 8 3 2 1 -487 -486 -730 731 0
730 -726 0
730 -729 0
13 16 15 14 -483 -555 -554 -553 -552 -547 -728 -727 729 0
728 -568 0
728 -596 0
727 -460 0
727 -622 0
-283 -725 726 0
725 -723 0
725 -724 0
725 -523 0
725 -528 0
725 -529 0
725 -530 0
725 -531 0
-582 -563 724 0
-610 -258 723 0
5 4 8 3 2 1 -487 -486 -721 722 0
721 -717 0
721 -720 0
13 16 15 14 -483 -459 -458 -457 -456 -447 -719 -718 720 0
719 -505 0
719 -556 0
718 -479 0
718 -568 0
-283 -716 717 0
716 -714 0
716 -715 0
716 -245 0
716 -254 0
716 -255 0
716 -256 0
716 -257 0
-532 -493 715 0
-563 -277 714 0
5 4 6 3 2 1 -487 -486 -712 713 0
712 -705 0
712 -711 0
13 16 15 14 -483 -624 -599 -686 -710 711 0
710 -709 0
710 -341 0
710 -342 0
710 -343 0
710 -344 0
-708 -707 -706 709 0
708 -434 0
708 -303 0
708 -305 0
708 -306 0
708 -307 0
708 -435 0
708 -436 0
708 -55 0
708 -54 0
708 -53 0
708 -52 0
708 -51 0
708 -50 0
708 -49 0
708 -437 0
707 -294 0
707 -295 0
707 -429 0
707 -296 0
707 -430 0
707 -431 0
707 -299 0
707 -42 0
707 -41 0
707 -40 0
707 -432 0
707 -39 0
707 -38 0
707 -37 0
707 -36 0
706 -424 0
706 -285 0
706 -286 0
706 -425 0
706 -426 0
706 -427 0
706 -290 0
706 -292 0
706 -29 0
706 -28 0
706 -27 0
706 -26 0
706 -25 0
706 -24 0
706 -23 0
-283 -704 705 0
704 -703 0
704 -678 0
704 -585 0
704 -612 0
-142 -141 -140 -139 -702 703 0
702 -699 0
702 -700 0
702 -701 0
-235 54 53 55 52 50 51 49 -234 -233 -105 -104 -103 -101 -232 701 0
-230 39 38 37 36 40 42 41 -97 -229 -228 -94 -227 -93 -92 700 0
25 24 23 28 29 27 26 -90 -225 -88 -224 -223 -84 -83 -222 699 0
7 5 6 8 2 1 -487 -486 -697 698 0
697 -693 0
697 -696 0
13 16 15 14 -483 -550 -549 -548 -621 -620 -695 -694 696 0
695 -541 0
695 -596 0
694 -504 0
694 -556 0
-283 -692 693 0
692 -690 0
692 -691 0
692 -608 0
692 -609 0
692 -524 0
692 -525 0
692 -526 0
-582 -517 691 0
-532 -492 690 0
7 5 4 8 2 1 -487 -486 -688 689 0
688 -680 0
688 -687 0
13 16 15 14 -483 -686 -623 -598 -685 687 0
686 -504 0
686 -460 0
685 -684 0
685 -341 0
685 -342 0
685 -343 0
685 -344 0
-683 -682 -681 684 0
683 -372 0
683 -356 0
683 -357 0
683 -373 0
683 -358 0
683 -374 0
683 -375 0
683 -359 0
683 -73 0
683 -69 0
683 -55 0
683 -54 0
683 -53 0
683 -52 0
683 -49 0
682 -351 0
682 -352 0
682 -367 0
682 -368 0
682 -353 0
682 -369 0
682 -354 0
682 -370 0
682 -72 0
682 -66 0
682 -42 0
682 -41 0
682 -40 0
682 -39 0
682 -36 0
681 -362 0
681 -346 0
681 -347 0
681 -348 0
681 -363 0
681 -364 0
681 -349 0
681 -365 0
681 -71 0
681 -63 0
681 -29 0
681 -28 0
681 -27 0
681 -26 0
681 -23 0
-283 -679 680 0
679 -677 0
679 -584 0
679 -611 0
679 -678 0
-258 -492 678 0
-142 -141 -140 -139 -676 677 0
676 -673 0
676 -674 0
676 -675 0
54 53 55 52 69 49 73 -157 -173 -172 -156 -171 -155 -154 -170 675 0
39 36 66 40 72 42 41 -168 -152 -167 -151 -166 -165 -150 -149 674 0
23 28 29 27 26 63 71 -163 -147 -162 -161 -146 -145 -144 -160 673 0
7 5 4 6 2 1 -487 -486 -671 672 0
671 -667 0
671 -670 0
13 16 15 14 -483 -418 -417 -412 -503 -501 -669 -668 670 0
669 -422 0
669 -622 0
668 -541 0
668 -509 0
-283 -666 667 0
666 -664 0
666 -665 0
666 -489 0
666 -491 0
666 -210 0
666 -215 0
666 -216 0
-610 -220 665 0
-497 -517 664 0
7 4 6 8 2 1 -487 -486 -662 663 0
662 -658 0
662 -661 0
13 16 15 14 -483 -464 -463 -462 -540 -539 -660 -659 661 0
660 -475 0
660 -622 0
659 -504 0
659 -568 0
-283 -657 658 0
657 -655 0
657 -656 0
657 -515 0
657 -516 0
657 -260 0
657 -261 0
657 -262 0
-610 -273 656 0
-563 -492 655 0
7 5 6 8 3 1 -487 -486 -653 654 0
653 -649 0
653 -652 0
13 16 15 14 -483 -545 -544 -543 -595 -593 -651 -650 652 0
651 -479 0
651 -622 0
650 -509 0
650 -556 0
-283 -648 649 0
648 -646 0
648 -647 0
648 -579 0
648 -581 0
648 -519 0
648 -520 0
648 -521 0
-610 -277 647 0
-532 -497 646 0
7 5 4 8 3 1 -487 -486 -644 645 0
644 -640 0
644 -643 0
13 16 15 14 -483 -441 -440 -423 -478 -476 -642 -641 643 0
642 -505 0
642 -596 0
641 -509 0
641 -460 0
-283 -639 640 0
639 -637 0
639 -638 0
639 -274 0
639 -276 0
639 -221 0
639 -238 0
639 -239 0
-582 -493 638 0
-258 -497 637 0
7 5 4 6 3 1 -487 -486 -635 636 0
635 -631 0
635 -634 0
13 16 15 14 -483 -383 -378 -345 -508 -507 -633 -632 634 0
633 -422 0
633 -596 0
632 -504 0
632 -479 0
-283 -630 631 0
630 -628 0
630 -629 0
630 -495 0
630 -496 0
630 -143 0
630 -176 0
630 -181 0
-582 -220 629 0
-277 -492 628 0
7 5 6 8 3 2 -487 -486 -626 627 0
626 -614 0
626 -625 0
13 16 15 14 -483 -624 -623 -597 -619 625 0
624 -422 0
624 -556 0
623 -505 0
623 -622 0
-550 -549 -548 -621 -620 622 0
621 -377 0
621 -594 0
621 -341 0
621 -342 0
621 -343 0
621 -344 0
620 -546 0
620 -411 0
620 -341 0
620 -342 0
620 -343 0
620 -344 0
619 -618 0
619 -341 0
619 -342 0
619 -343 0
619 -344 0
-617 -616 -615 618 0
617 -331 0
617 -304 0
617 -333 0
617 -308 0
617 -309 0
617 -310 0
617 -337 0
617 -338 0
617 -82 0
617 -79 0
617 -73 0
617 -69 0
617 -55 0
617 -54 0
617 -49 0
616 -322 0
616 -327 0
616 -297 0
616 -298 0
616 -300 0
616 -301 0
616 -328 0
616 -329 0
616 -81 0
616 -78 0
616 -72 0
616 -66 0
616 -42 0
616 -41 0
616 -36 0
615 -313 0
615 -314 0
615 -287 0
615 -288 0
615 -289 0
615 -291 0
615 -319 0
615 -320 0
615 -80 0
615 -77 0
615 -71 0
615 -63 0
615 -29 0
615 -28 0
615 -23 0
-283 -613 614 0
613 -607 0
613 -583 0
613 -611 0
613 -612 0
-532 -220 612 0
-610 -493 611 0
610 -608 0
610 -609 0
610 -524 0
610 -525 0
610 -526 0
-142 -141 -140 -139 -580 -175 609 0
-142 -141 -140 -139 -209 -522 608 0
-142 -141 -140 -139 -606 607 0
606 -603 0
606 -604 0
606 -605 0
54 55 69 49 79 73 82 -136 -135 -108 -107 -106 -131 -102 -129 605 0
36 81 66 78 72 42 -127 -126 41 -99 -98 -96 -95 -125 -120 604 0
23 28 29 63 77 71 80 -118 -117 -89 -87 -86 -85 -112 -111 603 0
7 4 6 8 3 1 -487 -486 -601 602 0
601 -587 0
601 -600 0
13 16 15 14 -483 -599 -598 -597 -592 600 0
599 -509 0
599 -568 0
598 -541 0
598 -479 0
597 -475 0
597 -596 0
-545 -544 -543 -595 -593 596 0
595 -382 0
595 -594 0
595 -341 0
595 -342 0
595 -343 0
595 -344 0
-555 -554 -553 594 0
593 -361 0
593 -551 0
593 -341 0
593 -342 0
593 -343 0
593 -344 0
592 -591 0
592 -341 0
592 -342 0
592 -343 0
592 -344 0
-590 -589 -588 591 0
590 -395 0
590 -396 0
590 -332 0
590 -397 0
590 -334 0
590 -335 0
590 -336 0
590 -398 0
590 -73 0
590 -69 0
590 -55 0
590 -54 0
590 -53 0
590 -52 0
590 -49 0
589 -390 0
589 -391 0
589 -323 0
589 -324 0
589 -392 0
589 -325 0
589 -326 0
589 -393 0
589 -72 0
589 -66 0
589 -42 0
589 -41 0
589 -40 0
589 -39 0
589 -36 0
588 -385 0
588 -315 0
588 -316 0
588 -386 0
588 -387 0
588 -317 0
588 -318 0
588 -71 0
588 -63 0
588 -388 0
588 -29 0
588 -28 0
588 -27 0
588 -26 0
588 -23 0
-283 -586 587 0
586 -578 0
586 -583 0
586 -584 0
586 -585 0
-563 -497 585 0
-277 -517 584 0
-582 -273 583 0
582 -579 0
582 -581 0
582 -519 0
582 -520 0
582 -521 0
-142 -141 -140 -139 -580 -180 581 0
580 -529 0
580 -530 0
580 -531 0
-142 -141 -140 -139 -527 -159 579 0
-142 -141 -140 -139 -577 578 0
577 -574 0
577 -575 0
577 -576 0
54 53 55 52 69 49 73 -196 -134 -133 -132 -195 -130 -194 -193 576 0
39 36 66 40 72 42 41 -191 -124 -123 -190 -122 -121 -189 -188 575 0
23 28 29 27 26 -186 63 71 -116 -115 -185 -184 -114 -113 -183 574 0
7 4 6 8 3 2 -487 -486 -572 573 0
572 -567 0
572 -571 0
13 16 15 14 -483 -474 -473 -472 -471 -466 -570 -569 571 0
570 -541 0
570 -505 0
569 -422 0
569 -568 0
-469 -468 -467 -559 -558 568 0
-283 -566 567 0
566 -564 0
566 -565 0
566 -264 0
566 -269 0
566 -270 0
566 -271 0
566 -272 0
-493 -517 565 0
-563 -220 564 0
563 -534 0
563 -535 0
563 -265 0
563 -266 0
563 -267 0
4 6 8 3 2 1 -487 -486 -561 562 0
561 -537 0
561 -560 0
13 16 15 14 -483 -469 -468 -467 -559 -558 -557 -542 560 0
559 -465 0
559 -439 0
559 -341 0
559 -342 0
559 -343 0
559 -344 0
558 -538 0
558 -455 0
558 -341 0
558 -342 0
558 -343 0
558 -344 0
557 -475 0
557 -556 0
-555 -554 -553 -552 -547 556 0
555 -455 0
555 -341 0
555 -342 0
555 -343 0
555 -344 0
554 -439 0
554 -416 0
554 -341 0
554 -342 0
554 -343 0
554 -344 0
553 -446 0
553 -340 0
553 -341 0
553 -342 0
553 -343 0
553 -344 0
552 -551 0
552 -439 0
552 -341 0
552 -342 0
552 -343 0
552 -344 0
-550 -549 -548 551 0
550 -416 0
550 -341 0
550 -342 0
550 -343 0
550 -344 0
549 -377 0
549 -455 0
549 -341 0
549 -342 0
549 -343 0
549 -344 0
548 -411 0
548 -340 0
548 -341 0
548 -342 0
548 -343 0
548 -344 0
547 -546 0
547 -446 0
547 -341 0
547 -342 0
547 -343 0
547 -344 0
-545 -544 -543 546 0
545 -340 0
545 -341 0
545 -342 0
545 -343 0
545 -344 0
544 -382 0
544 -455 0
544 -341 0
544 -342 0
544 -343 0
544 -344 0
543 -361 0
543 -416 0
543 -341 0
543 -342 0
543 -343 0
543 -344 0
542 -541 0
542 -460 0
-464 -463 -462 -540 -539 541 0
540 -470 0
540 -377 0
540 -341 0
540 -342 0
540 -343 0
540 -344 0
539 -538 0
539 -416 0
539 -341 0
539 -342 0
539 -343 0
539 -344 0
-474 -473 -472 538 0
-283 -536 537 0
536 -518 0
536 -533 0
536 -534 0
536 -535 0
536 -265 0
536 -266 0
536 -267 0
-142 -141 -140 -139 -237 -263 535 0
-142 -141 -140 -139 -253 -514 534 0
-532 -273 533 0
532 -523 0
532 -528 0
532 -529 0
532 -530 0
532 -531 0
-142 -141 -140 -139 -253 531 0
-142 -141 -140 -139 -214 -237 530 0
-142 -141 -140 -139 -138 -244 529 0
-142 -141 -140 -139 -237 -527 528 0
527 -524 0
527 -525 0
527 -526 0
-142 -141 -140 -139 -214 526 0
-142 -141 -140 -139 -253 -175 525 0
-142 -141 -140 -139 -138 -209 524 0
-142 -141 -140 -139 -244 -522 523 0
522 -519 0
522 -520 0
522 -521 0
-142 -141 -140 -139 -138 521 0
-142 -141 -140 -139 -253 -180 520 0
-142 -141 -140 -139 -214 -159 519 0
-258 -517 518 0
517 -515 0
517 -516 0
517 -260 0
517 -261 0
517 -262 0
-142 -141 -140 -139 -175 -268 516 0
-142 -141 -140 -139 -214 -514 515 0
514 -270 0
514 -271 0
514 -272 0
7 5 4 6 3 2 -487 -486 -512 513 0
512 -500 0
512 -511 0
13 16 15 14 -483 -421 -420 -407 -402 -401 -510 -506 511 0
510 -475 0
510 -509 0
-383 -378 -345 -508 -507 509 0
508 -419 0
508 -361 0
508 -341 0
508 -342 0
508 -343 0
508 -344 0
507 -502 0
507 -340 0
507 -341 0
507 -342 0
507 -343 0
507 -344 0
506 -504 0
506 -505 0
-450 -449 -448 -482 -481 505 0
-418 -417 -412 -503 -501 504 0
503 -502 0
503 -416 0
503 -341 0
503 -342 0
503 -343 0
503 -344 0
-421 -407 -402 502 0
501 -384 0
501 -411 0
501 -341 0
501 -342 0
501 -343 0
501 -344 0
-283 -499 500 0
499 -494 0
499 -498 0
499 -199 0
499 -200 0
499 -205 0
499 -218 0
499 -219 0
-497 -273 498 0
497 -495 0
497 -496 0
497 -143 0
497 -176 0
497 -181 0
-142 -141 -140 -139 -159 -217 496 0
-142 -141 -140 -139 -138 -490 495 0
-493 -492 494 0
493 -279 0
493 -280 0
493 -246 0
493 -247 0
493 -248 0
492 -489 0
492 -491 0
492 -210 0
492 -215 0
492 -216 0
-142 -141 -140 -139 -214 -490 491 0
490 -200 0
490 -205 0
490 -219 0
-142 -141 -140 -139 -209 -182 489 0
7 5 4 8 3 2 -487 -486 -485 488 0
487 -7 0
487 -3 0
487 -2 0
487 -1 0
486 -8 0
486 -6 0
486 -5 0
486 -4 0
485 -284 0
485 -484 0
13 16 15 14 -483 -450 -449 -448 -482 -481 -480 -461 484 0
483 10 0
483 11 0
483 12 0
483 9 0
482 -477 0
482 -312 0
482 -341 0
482 -342 0
482 -343 0
482 -344 0
481 -442 0
481 -400 0
481 -341 0
481 -342 0
481 -343 0
481 -344 0
480 -475 0
480 -479 0
-441 -440 -423 -478 -476 479 0
478 -477 0
478 -382 0
478 -341 0
478 -342 0
478 -343 0
478 -344 0
-459 -458 -457 477 0
476 -451 0
476 -340 0
476 -341 0
476 -342 0
476 -343 0
476 -344 0
-474 -473 -472 -471 -466 475 0
474 -400 0
474 -341 0
474 -342 0
474 -343 0
474 -344 0
473 -312 0
473 -446 0
473 -341 0
473 -342 0
473 -343 0
473 -344 0
472 -406 0
472 -411 0
472 -341 0
472 -342 0
472 -343 0
472 -344 0
471 -312 0
471 -470 0
471 -341 0
471 -342 0
471 -343 0
471 -344 0
-469 -468 -467 470 0
469 -446 0
469 -341 0
469 -342 0
469 -343 0
469 -344 0
468 -411 0
468 -439 0
468 -341 0
468 -342 0
468 -343 0
468 -344 0
467 -400 0
467 -455 0
467 -341 0
467 -342 0
467 -343 0
467 -344 0
466 -406 0
466 -465 0
466 -341 0
466 -342 0
466 -343 0
466 -344 0
-464 -463 -462 465 0
464 -411 0
464 -341 0
464 -342 0
464 -343 0
464 -344 0
463 -377 0
463 -446 0
463 -341 0
463 -342 0
463 -343 0
463 -344 0
462 -400 0
462 -416 0
462 -341 0
462 -342 0
462 -343 0
462 -344 0
461 -422 0
461 -460 0
-459 -458 -457 -456 -447 460 0
459 -439 0
459 -341 0
459 -342 0
459 -343 0
459 -344 0
458 -406 0
458 -455 0
458 -341 0
458 -342 0
458 -343 0
458 -344 0
457 -361 0
457 -446 0
457 -341 0
457 -342 0
457 -343 0
457 -344 0
456 -451 0
456 -455 0
456 -341 0
456 -342 0
456 -343 0
456 -344 0
-454 -453 -452 455 0
454 -434 0
454 -331 0
454 -435 0
454 -333 0
454 -436 0
454 -337 0
454 -338 0
454 -79 0
454 -69 0
454 -68 0
454 -55 0
454 -54 0
454 -52 0
454 -50 0
454 -437 0
453 -322 0
453 -429 0
453 -430 0
453 -327 0
453 -431 0
453 -328 0
453 -329 0
453 -78 0
453 -66 0
453 -65 0
453 -42 0
453 -41 0
453 -432 0
453 -39 0
453 -37 0
452 -424 0
452 -313 0
452 -314 0
452 -425 0
452 -426 0
452 -427 0
452 -319 0
452 -320 0
452 -77 0
452 -63 0
452 -62 0
452 -29 0
452 -28 0
452 -26 0
452 -24 0
-450 -449 -448 451 0
450 -406 0
450 -341 0
450 -342 0
450 -343 0
450 -344 0
449 -312 0
449 -439 0
449 -341 0
449 -342 0
449 -343 0
449 -344 0
448 -400 0
448 -361 0
448 -341 0
448 -342 0
448 -343 0
448 -344 0
447 -442 0
447 -446 0
447 -341 0
447 -342 0
447 -343 0
447 -344 0
-445 -444 -443 446 0
445 -434 0
445 -395 0
445 -396 0
445 -435 0
445 -397 0
445 -436 0
445 -398 0
445 -69 0
445 -68 0
445 -55 0
445 -54 0
445 -53 0
445 -52 0
445 -50 0
445 -437 0
444 -390 0
444 -429 0
444 -391 0
444 -430 0
444 -392 0
444 -393 0
444 -431 0
444 -66 0
444 -65 0
444 -42 0
444 -41 0
444 -40 0
444 -432 0
444 -39 0
444 -37 0
443 -424 0
443 -385 0
443 -425 0
443 -426 0
443 -386 0
443 -387 0
443 -427 0
443 -63 0
443 -62 0
443 -388 0
443 -29 0
443 -28 0
443 -27 0
443 -26 0
443 -24 0
-441 -440 -423 442 0
441 -361 0
441 -341 0
441 -342 0
441 -343 0
441 -344 0
440 -382 0
440 -439 0
440 -341 0
440 -342 0
440 -343 0
440 -344 0
-438 -433 -428 439 0
438 -434 0
438 -356 0
438 -357 0
438 -435 0
438 -358 0
438 -436 0
438 -359 0
438 -70 0
438 -69 0
438 -68 0
438 -55 0
438 -53 0
438 -52 0
438 -50 0
438 -437 0
-19 13 437 0
-13 -22 436 0
-9 -60 435 0
9 -56 434 0
433 -351 0
433 -352 0
433 -429 0
433 -430 0
433 -353 0
433 -354 0
433 -431 0
433 -67 0
433 -66 0
433 -65 0
433 -42 0
433 -40 0
433 -432 0
433 -39 0
433 -37 0
-13 -20 432 0
-18 13 431 0
-9 -47 430 0
9 -43 429 0
428 -424 0
428 -346 0
428 -347 0
428 -425 0
428 -426 0
428 -348 0
428 -349 0
428 -427 0
428 -64 0
428 -63 0
428 -62 0
428 -29 0
428 -27 0
428 -26 0
428 -24 0
-13 -21 427 0
-9 -34 426 0
-17 13 425 0
-30 9 424 0
423 -406 0
423 -340 0
423 -341 0
423 -342 0
423 -343 0
423 -344 0
-421 -420 -407 -402 -401 422 0
421 -312 0
421 -341 0
421 -342 0
421 -343 0
421 -344 0
420 -419 0
420 -406 0
420 -341 0
420 -342 0
420 -343 0
420 -344 0
-418 -417 -412 419 0
418 -377 0
418 -341 0
418 -342 0
418 -343 0
418 -344 0
417 -312 0
417 -416 0
417 -341 0
417 -342 0
417 -343 0
417 -344 0
-415 -414 -413 416 0
415 -372 0
415 -331 0
415 -373 0
415 -333 0
415 -374 0
415 -375 0
415 -337 0
415 -338 0
415 -79 0
415 -73 0
415 -69 0
415 -68 0
415 -55 0
415 -54 0
415 -52 0
414 -322 0
414 -367 0
414 -368 0
414 -369 0
414 -370 0
414 -327 0
414 -328 0
414 -329 0
414 -78 0
414 -72 0
414 -66 0
414 -65 0
414 -42 0
414 -41 0
414 -39 0
413 -362 0
413 -313 0
413 -314 0
413 -363 0
413 -364 0
413 -365 0
413 -319 0
413 -320 0
413 -77 0
413 -71 0
413 -63 0
413 -62 0
413 -29 0
413 -28 0
413 -26 0
412 -382 0
412 -411 0
412 -341 0
412 -342 0
412 -343 0
412 -344 0
-410 -409 -408 411 0
410 -372 0
410 -395 0
410 -396 0
410 -373 0
410 -397 0
410 -374 0
410 -375 0
410 -398 0
410 -73 0
410 -70 0
410 -69 0
410 -68 0
410 -55 0
410 -53 0
410 -52 0
409 -390 0
409 -367 0
409 -391 0
409 -368 0
409 -369 0
409 -392 0
409 -393 0
409 -370 0
409 -72 0
409 -67 0
409 -66 0
409 -65 0
409 -42 0
409 -40 0
409 -39 0
408 -362 0
408 -385 0
408 -363 0
408 -386 0
408 -387 0
408 -364 0
408 -365 0
408 -71 0
408 -64 0
408 -63 0
408 -62 0
408 -388 0
408 -29 0
408 -27 0
408 -26 0
407 -406 0
407 -377 0
407 -341 0
407 -342 0
407 -343 0
407 -344 0
-405 -404 -403 406 0
405 -304 0
405 -356 0
405 -357 0
405 -358 0
405 -308 0
405 -309 0
405 -310 0
405 -359 0
405 -82 0
405 -73 0
405 -69 0
405 -68 0
405 -55 0
405 -54 0
405 -53 0
404 -351 0
404 -352 0
404 -353 0
404 -354 0
404 -297 0
404 -298 0
404 -300 0
404 -301 0
404 -81 0
404 -72 0
404 -66 0
404 -65 0
404 -42 0
404 -41 0
404 -40 0
403 -287 0
403 -346 0
403 -347 0
403 -348 0
403 -288 0
403 -349 0
403 -289 0
403 -291 0
403 -80 0
403 -71 0
403 -63 0
403 -62 0
403 -29 0
403 -28 0
403 -27 0
402 -400 0
402 -382 0
402 -341 0
402 -342 0
402 -343 0
402 -344 0
401 -384 0
401 -400 0
401 -341 0
401 -342 0
401 -343 0
401 -344 0
-399 -394 -389 400 0
399 -395 0
399 -304 0
399 -396 0
399 -397 0
399 -308 0
399 -309 0
399 -310 0
399 -398 0
399 -82 0
399 -76 0
399 -73 0
399 -69 0
399 -68 0
399 -54 0
399 -53 0
-11 -61 398 0
11 -58 397 0
15 -57 396 0
-15 -59 395 0
394 -390 0
394 -391 0
394 -392 0
394 -393 0
394 -297 0
394 -298 0
394 -300 0
394 -301 0
394 -81 0
394 -75 0
394 -72 0
394 -66 0
394 -65 0
394 -41 0
394 -40 0
11 -45 393 0
-11 -48 392 0
15 -44 391 0
-15 -46 390 0
389 -287 0
389 -385 0
389 -288 0
389 -386 0
389 -387 0
389 -289 0
389 -291 0
389 -80 0
389 -74 0
389 -71 0
389 -63 0
389 -62 0
389 -388 0
389 -28 0
389 -27 0
-15 -33 388 0
-11 -35 387 0
-32 11 386 0
-31 15 385 0
-383 -378 -345 384 0
383 -382 0
383 -341 0
383 -342 0
383 -343 0
383 -344 0
-381 -380 -379 382 0
381 -303 0
381 -305 0
381 -306 0
381 -307 0
381 -332 0
381 -334 0
381 -335 0
381 -336 0
381 -73 0
381 -68 0
381 -55 0
381 -54 0
381 -53 0
381 -52 0
381 -51 0
380 -294 0
380 -295 0
380 -296 0
380 -323 0
380 -324 0
380 -325 0
380 -326 0
380 -299 0
380 -72 0
380 -65 0
380 -42 0
380 -41 0
380 -40 0
380 -39 0
380 -38 0
379 -285 0
379 -286 0
379 -315 0
379 -316 0
379 -317 0
379 -318 0
379 -290 0
379 -71 0
379 -62 0
379 -292 0
379 -29 0
379 -28 0
379 -27 0
379 -26 0
379 -25 0
378 -361 0
378 -377 0
378 -341 0
378 -342 0
378 -343 0
378 -344 0
-376 -371 -366 377 0
376 -303 0
376 -372 0
376 -305 0
376 -306 0
376 -307 0
376 -373 0
376 -374 0
376 -375 0
376 -76 0
376 -73 0
376 -68 0
376 -54 0
376 -53 0
376 -52 0
376 -51 0
-14 -22 375 0
-10 -60 374 0
-19 14 373 0
10 -56 372 0
371 -294 0
371 -367 0
371 -295 0
371 -296 0
371 -368 0
371 -369 0
371 -370 0
371 -299 0
371 -75 0
371 -72 0
371 -65 0
371 -41 0
371 -40 0
371 -39 0
371 -38 0
-14 -20 370 0
-10 -47 369 0
-18 14 368 0
10 -43 367 0
366 -285 0
366 -362 0
366 -286 0
366 -363 0
366 -364 0
366 -365 0
366 -290 0
366 -74 0
366 -71 0
366 -62 0
366 -292 0
366 -28 0
366 -27 0
366 -26 0
366 -25 0
-14 -21 365 0
-17 14 364 0
-10 -34 363 0
-30 10 362 0
-360 -355 -350 361 0
360 -356 0
360 -357 0
360 -358 0
360 -332 0
360 -334 0
360 -335 0
360 -336 0
360 -359 0
360 -76 0
360 -73 0
360 -69 0
360 -68 0
360 -54 0
360 -53 0
360 -52 0
-10 -61 359 0
14 -57 358 0
-14 -59 357 0
10 -58 356 0
355 -351 0
355 -352 0
355 -353 0
355 -323 0
355 -324 0
355 -325 0
355 -326 0
355 -354 0
355 -75 0
355 -72 0
355 -66 0
355 -65 0
355 -41 0
355 -40 0
355 -39 0
-14 -46 354 0
14 -44 353 0
-10 -48 352 0
10 -45 351 0
350 -346 0
350 -347 0
350 -348 0
350 -315 0
350 -316 0
350 -317 0
350 -318 0
350 -349 0
350 -74 0
350 -71 0
350 -63 0
350 -62 0
350 -28 0
350 -27 0
350 -26 0
-14 -33 349 0
-31 14 348 0
-10 -35 347 0
-32 10 346 0
345 -312 0
345 -340 0
345 -341 0
345 -342 0
345 -343 0
345 -344 0
-18 17 344 0
-21 20 343 0
-19 18 342 0
-20 22 341 0
-339 -330 -321 340 0
339 -331 0
339 -332 0
339 -333 0
339 -334 0
339 -335 0
339 -336 0
339 -337 0
339 -338 0
339 -79 0
339 -73 0
339 -70 0
339 -69 0
339 -68 0
339 -55 0
339 -52 0
-12 -61 338 0
-16 -59 337 0
-15 -22 336 0
-11 -60 335 0
11 -56 334 0
16 -57 333 0
-19 15 332 0
12 -58 331 0
330 -322 0
330 -323 0
330 -324 0
330 -325 0
330 -326 0
330 -327 0
330 -328 0
330 -329 0
330 -78 0
330 -72 0
330 -67 0
330 -66 0
330 -65 0
330 -42 0
330 -39 0
-16 -46 329 0
16 -44 328 0
-12 -48 327 0
-11 -47 326 0
11 -43 325 0
-15 -20 324 0
-18 15 323 0
12 -45 322 0
321 -313 0
321 -314 0
321 -315 0
321 -316 0
321 -317 0
321 -318 0
321 -319 0
321 -320 0
321 -77 0
321 -71 0
321 -64 0
321 -63 0
321 -62 0
321 -29 0
321 -26 0
-16 -33 320 0
-31 16 319 0
-11 -34 318 0
-30 11 317 0
-15 -21 316 0
-17 15 315 0
-12 -35 314 0
-32 12 313 0
-311 -302 -293 312 0
311 -303 0
311 -304 0
311 -305 0
311 -306 0
311 -307 0
311 -308 0
311 -309 0
311 -310 0
311 -82 0
311 -73 0
311 -68 0
311 -55 0
311 -54 0
311 -53 0
311 -51 0
-16 -22 310 0
-12 -60 309 0
-19 16 308 0
13 -57 307 0
-9 -61 306 0
-13 -59 305 0
12 -56 304 0
9 -58 303 0
302 -294 0
302 -295 0
302 -296 0
302 -297 0
302 -298 0
302 -299 0
302 -300 0
302 -301 0
302 -81 0
302 -72 0
302 -65 0
302 -42 0
302 -41 0
302 -40 0
302 -38 0
-16 -20 301 0
-18 16 300 0
-9 -48 299 0
-12 -47 298 0
12 -43 297 0
13 -44 296 0
-13 -46 295 0
9 -45 294 0
293 -285 0
293 -286 0
293 -287 0
293 -288 0
293 -289 0
293 -290 0
293 -291 0
293 -80 0
293 -71 0
293 -62 0
293 -292 0
293 -29 0
293 -28 0
293 -27 0
293 -25 0
-9 -35 292 0
-17 16 291 0
-31 13 290 0
-16 -21 289 0
-12 -34 288 0
-30 12 287 0
-13 -33 286 0
-32 9 285 0
-283 -281 284 0
283 -282 0
283 -16 0
283 -15 0
283 -14 0
283 -13 0
-9 -10 -11 -12 282 0
281 -259 0
281 -278 0
281 -279 0
281 -280 0
281 -246 0
281 -247 0
281 -248 0
-142 -141 -140 -139 -110 -275 280 0
-142 -141 -140 -139 -198 -240 279 0
-277 -273 278 0
277 -274 0
277 -276 0
277 -221 0
277 -238 0
277 -239 0
-142 -141 -140 -139 -180 -275 276 0
275 -255 0
275 -256 0
275 -257 0
-142 -141 -140 -139 -138 -249 274 0
273 -264 0
273 -269 0
273 -270 0
273 -271 0
273 -272 0
-142 -141 -140 -139 -198 272 0
-142 -141 -140 -139 -244 -110 271 0
-142 -141 -140 -139 -209 -204 270 0
-142 -141 -140 -139 -268 -110 269 0
268 -265 0
268 -266 0
268 -267 0
-142 -141 -140 -139 -244 267 0
-142 -141 -140 -139 -237 -209 266 0
-142 -141 -140 -139 -253 -198 265 0
-142 -141 -140 -139 -263 -204 264 0
263 -260 0
263 -261 0
263 -262 0
-142 -141 -140 -139 -209 262 0
-142 -141 -140 -139 -244 -175 261 0
-142 -141 -140 -139 -214 -198 260 0
-258 -220 259 0
258 -245 0
258 -254 0
258 -255 0
258 -256 0
258 -257 0
-142 -141 -140 -139 -237 257 0
-142 -141 -140 -139 -253 -204 256 0
-142 -141 -140 -139 -244 -159 255 0
-142 -141 -140 -139 -253 -249 254 0
253 -250 0
253 -251 0
253 -252 0
-235 54 55 52 50 69 68 79 -136 -135 -234 -131 -233 -129 -232 252 0
-230 39 37 66 65 78 42 -127 -126 41 -229 -125 -228 -227 -120 251 0
24 28 29 26 63 62 77 -118 -117 -225 -224 -223 -112 -111 -222 250 0
249 -246 0
249 -247 0
249 -248 0
-142 -141 -140 -139 -204 248 0
-142 -141 -140 -139 -237 -110 247 0
-142 -141 -140 -139 -159 -198 246 0
-142 -141 -140 -139 -244 -240 245 0
244 -241 0
244 -242 0
244 -243 0
-235 54 53 55 52 50 69 68 -196 -234 -195 -233 -194 -193 -232 243 0
-230 39 37 66 40 65 42 41 -229 -191 -190 -228 -189 -227 -188 242 0
24 28 29 27 26 -186 63 62 -225 -185 -184 -224 -223 -183 -222 241 0
240 -221 0
240 -238 0
240 -239 0
-142 -141 -140 -139 -159 239 0
-142 -141 -140 -139 -237 -180 238 0
237 -226 0
237 -231 0
237 -236 0
-235 53 55 52 50 69 68 70 -157 -234 -156 -233 -155 -154 -232 236 0
235 19 0
235 -13 0
234 22 0
234 13 0
233 60 0
233 9 0
232 56 0
232 -9 0
-230 39 37 67 66 40 65 42 -229 -152 -151 -228 -227 -150 -149 231 0
230 20 0
230 13 0
229 18 0
229 -13 0
228 47 0
228 9 0
227 43 0
227 -9 0
24 29 27 26 64 63 62 -225 -147 -146 -224 -223 -145 -144 -222 226 0
225 21 0
225 13 0
224 34 0
224 9 0
223 17 0
223 -13 0
222 30 0
222 -9 0
-142 -141 -140 -139 -138 -204 221 0
220 -199 0
220 -200 0
220 -205 0
220 -218 0
220 -219 0
-142 -141 -140 -139 -110 219 0
-142 -141 -140 -139 -204 -217 218 0
217 -210 0
217 -215 0
217 -216 0
-142 -141 -140 -139 -175 216 0
-142 -141 -140 -139 -214 -110 215 0
214 -211 0
214 -212 0
214 -213 0
54 55 52 69 68 79 73 -136 -135 -173 -172 -131 -171 -129 -170 213 0
39 66 65 78 72 42 -127 -126 41 -125 -168 -167 -166 -165 -120 212 0
28 29 26 63 62 77 71 -118 -117 -163 -162 -161 -112 -111 -160 211 0
-142 -141 -140 -139 -209 -180 210 0
209 -206 0
209 -207 0
209 -208 0
53 55 52 69 68 73 70 -196 -173 -172 -195 -171 -194 -193 -170 208 0
39 67 66 40 65 72 42 -168 -191 -190 -167 -166 -189 -165 -188 207 0
29 27 26 -186 64 63 62 71 -163 -162 -185 -184 -161 -183 -160 206 0
-142 -141 -140 -139 -175 -204 205 0
204 -201 0
204 -202 0
204 -203 0
54 53 55 69 68 73 82 -157 -108 -107 -106 -156 -155 -154 -102 203 0
81 66 40 65 72 42 41 -99 -98 -96 -95 -152 -151 -150 -149 202 0
28 29 27 63 62 71 80 -89 -87 -147 -86 -146 -145 -144 -85 201 0
-142 -141 -140 -139 -180 -198 200 0
-142 -141 -140 -139 -198 -182 199 0
198 -187 0
198 -192 0
198 -197 0
54 53 76 69 68 73 82 -196 -108 -107 -106 -195 -194 -102 -193 197 0
196 61 0
196 11 0
195 58 0
195 -11 0
194 57 0
194 -15 0
193 59 0
193 15 0
81 66 40 65 75 72 41 -99 -98 -96 -95 -191 -190 -189 -188 192 0
191 45 0
191 -11 0
190 48 0
190 11 0
189 44 0
189 -15 0
188 46 0
188 15 0
28 27 -186 63 62 74 71 80 -89 -87 -185 -184 -86 -183 -85 187 0
186 33 0
186 15 0
185 35 0
185 11 0
184 32 0
184 -11 0
183 31 0
183 -15 0
182 -143 0
182 -176 0
182 -181 0
-142 -141 -140 -139 -180 181 0
180 -177 0
180 -178 0
180 -179 0
54 53 55 52 68 51 73 -134 -133 -132 -130 -105 -104 -103 -101 179 0
39 38 40 65 72 42 41 -97 -124 -123 -122 -121 -94 -93 -92 178 0
25 28 29 27 26 -90 62 71 -88 -116 -115 -114 -113 -84 -83 177 0
-142 -141 -140 -139 -175 -159 176 0
175 -164 0
175 -169 0
175 -174 0
54 53 76 52 68 51 73 -173 -172 -171 -105 -104 -103 -170 -101 174 0
173 14 0
173 22 0
172 60 0
172 10 0
171 19 0
171 -14 0
170 56 0
170 -10 0
39 38 40 65 75 72 41 -97 -168 -167 -166 -94 -93 -165 -92 169 0
168 14 0
168 20 0
167 47 0
167 10 0
166 18 0
166 -14 0
165 43 0
165 -10 0
25 28 27 26 -90 62 74 71 -88 -163 -162 -161 -84 -160 -83 164 0
163 14 0
163 21 0
162 17 0
162 -14 0
161 34 0
161 10 0
160 30 0
160 -10 0
159 -148 0
159 -153 0
159 -158 0
54 53 76 52 69 68 73 -157 -134 -133 -132 -130 -156 -155 -154 158 0
157 61 0
157 10 0
156 57 0
156 -14 0
155 59 0
155 14 0
154 58 0
154 -10 0
39 66 40 65 75 72 41 -152 -124 -123 -122 -121 -151 -150 -149 153 0
152 46 0
152 14 0
151 44 0
151 -14 0
150 48 0
150 10 0
149 45 0
149 -10 0
28 27 26 63 62 74 71 -147 -116 -115 -114 -113 -146 -145 -144 148 0
147 33 0
147 14 0
146 31 0
146 -14 0
145 35 0
145 10 0
144 32 0
144 -10 0
-142 -141 -140 -139 -138 -110 143 0
142 18 0
142 -17 0
141 21 0
141 -20 0
140 19 0
140 -18 0
139 20 0
139 -22 0
138 -119 0
138 -128 0
138 -137 0
55 52 69 68 79 73 70 -136 -135 -134 -133 -132 -131 -130 -129 137 0
136 61 0
136 12 0
135 59 0
135 16 0
134 15 0
134 22 0
133 60 0
133 11 0
132 56 0
132 -11 0
131 57 0
131 -16 0
130 19 0
130 -15 0
129 58 0
129 -12 0
39 67 66 65 78 72 42 -127 -126 -125 -124 -123 -122 -121 -120 128 0
127 46 0
127 16 0
126 44 0
126 -16 0
125 48 0
125 12 0
124 47 0
124 11 0
123 43 0
123 -11 0
122 15 0
122 20 0
121 18 0
121 -15 0
120 45 0
120 -12 0
29 26 64 63 62 77 71 -118 -117 -116 -115 -114 -113 -112 -111 119 0
118 33 0
118 16 0
117 31 0
117 -16 0
116 34 0
116 11 0
115 30 0
115 -11 0
114 15 0
114 21 0
113 17 0
113 -15 0
112 35 0
112 12 0
111 32 0
111 -12 0
110 -91 0
110 -100 0
110 -109 0
54 53 55 68 51 73 82 -108 -107 -106 -105 -104 -103 -102 -101 109 0
108 16 0
108 22 0
107 60 0
107 12 0
106 19 0
106 -16 0
105 57 0
105 -13 0
104 61 0
104 9 0
103 59 0
103 13 0
102 56 0
102 -12 0
101 58 0
101 -9 0
38 81 40 65 72 42 41 -99 -98 -97 -96 -95 -94 -93 -92 100 0
99 16 0
99 20 0
98 18 0
98 -16 0
97 48 0
97 9 0
96 47 0
96 12 0
95 43 0
95 -12 0
94 44 0
94 -13 0
93 46 0
93 13 0
92 45 0
92 -9 0
25 28 29 27 -90 62 71 80 -89 -88 -87 -86 -85 -84 -83 91 0
90 35 0
90 9 0
89 17 0
89 -16 0
88 31 0
88 -13 0
87 16 0
87 21 0
86 34 0
86 12 0
85 30 0
85 -12 0
84 33 0
84 13 0
83 32 0
83 -9 0
